Optimal - objective value 20208.16000000
      4 x0_5                   1                    4.63
      5 x0_6                   1                    6.09
     27 x1_13                  1                       0
     30 x2_0                   1                    3.87
     53 x3_9                   1                       0
     66 x4_7                   1                       0
     78 x5_3                   1                       0
     97 x6_8                   1                       0
    118 x7_14                  1                   21.53
    129 x8_10                  1                       0
    146 x9_12                  1                       0
    151 x10_1                  1                       0
    165 x11_0                  1                    -1.2
    191 x12_11                 1                       0
    209 x13_15                 1                       0
    212 x14_2                  1                    2.61
    229 x15_4                  1         9.64999999999987
    240 u1       7.99999999999999                       0
    241 u2                    20                       0
    242 u3                     4                       0
    243 u4                    14                       0
    244 u5                     2                       0
    245 u6                     2                       0
    246 u7                    16                       0
    247 u8                     4                       0
    248 u9                     6                       0
    249 u10                    6                       0
    250 u11      9.99999999999999                       0
    251 u12      7.99999999999999                       0
    252 u13      9.99999999999999                       0
    253 u14                   18                       0
    254 u15                   12                       0
